101393
80,45,46,54,71,66,36,26,76,67,20,9,21,48,24,31,19,5,22,44,68,59,53,8,83,61,6,79,28,35,30,2,38,16,27,33,11,75,82,40,32,74,58,77,17,56,7,51,72,81,43,60,47,49,34,57,3,12,23,55,42,25,15,69,78,41,52,39,63,4,50,65,18,37,13,73,64,1,10,29,14,70,62,80